\ Model birth-death-regulation-capture-efficiency
\ LP format - for model browsing. Use MPS format to capture full model detail.
Minimize
  k_reg
Subject To
 R0: k_deg_2 = 1
 B_lb_0,_0: p[0,0] >= 0.3315857142857143
 B_ub_0,_0: p[0,0] <= 0.3638
 B_lb_0,_1: p[0,1] >= 0.1949857142857143
 B_ub_0,_1: p[0,1] <= 0.2238
 B_lb_0,_2: p[0,2] >= 0.0529857142857143
 B_ub_0,_2: p[0,2] <= 0.0728
 B_lb_0,_3: p[0,3] >= 0.00798071428571429
 B_ub_0,_3: p[0,3] <= 0.021
 B_lb_0,_4: p[0,4] >= -0.00281428571428571
 B_ub_0,_4: p[0,4] <= 0.007
 B_lb_0,_5: p[0,5] >= -0.00601428571428571
 B_ub_0,_5: p[0,5] <= 1
 B_lb_0,_6: p[0,6] >= -0.00601428571428571
 B_ub_0,_6: p[0,6] <= 1
 B_lb_1,_0: p[1,0] >= 0.1871857142857143
 B_ub_1,_0: p[1,0] <= 0.2154
 B_lb_1,_1: p[1,1] >= 0.0273857142857143
 B_ub_1,_1: p[1,1] <= 0.044
 B_lb_1,_2: p[1,2] >= -2.142857142857146e-04
 B_ub_1,_2: p[1,2] <= 0.0108
 B_lb_1,_3: p[1,3] >= -0.00601428571428571
 B_ub_1,_3: p[1,3] <= 1
 B_lb_1,_4: p[1,4] >= -0.00601428571428571
 B_ub_1,_4: p[1,4] <= 1
 B_lb_1,_5: p[1,5] >= -0.00601428571428571
 B_ub_1,_5: p[1,5] <= 1
 B_lb_1,_6: p[1,6] >= -0.00601428571428571
 B_ub_1,_6: p[1,6] <= 1
 B_lb_2,_0: p[2,0] >= 0.0523857142857143
 B_ub_2,_0: p[2,0] <= 0.0718
 B_lb_2,_1: p[2,1] >= -0.00261428571428571
 B_ub_2,_1: p[2,1] <= 0.0074
 B_lb_2,_2: p[2,2] >= -0.00601428571428571
 B_ub_2,_2: p[2,2] <= 1
 B_lb_2,_3: p[2,3] >= -0.00601428571428571
 B_ub_2,_3: p[2,3] <= 1
 B_lb_2,_4: p[2,4] >= -0.00601428571428571
 B_ub_2,_4: p[2,4] <= 1
 B_lb_2,_5: p[2,5] >= -0.00601428571428571
 B_ub_2,_5: p[2,5] <= 1
 B_lb_2,_6: p[2,6] >= -0.00601428571428571
 B_ub_2,_6: p[2,6] <= 1
 B_lb_3,_0: p[3,0] >= 0.00938571428571429
 B_ub_3,_0: p[3,0] <= 0.0228
 B_lb_3,_1: p[3,1] >= -0.00601428571428571
 B_ub_3,_1: p[3,1] <= 1
 B_lb_3,_2: p[3,2] >= -0.00601428571428571
 B_ub_3,_2: p[3,2] <= 1
 B_lb_3,_3: p[3,3] >= -0.00601428571428571
 B_ub_3,_3: p[3,3] <= 1
 B_lb_3,_4: p[3,4] >= -0.00601428571428571
 B_ub_3,_4: p[3,4] <= 1
 B_lb_3,_5: p[3,5] >= -0.00601428571428571
 B_ub_3,_5: p[3,5] <= 1
 B_lb_3,_6: p[3,6] >= -0.00601428571428571
 B_ub_3,_6: p[3,6] <= 1
 B_lb_4,_0: p[4,0] >= -0.00381428571428571
 B_ub_4,_0: p[4,0] <= 0.0056
 B_lb_4,_1: p[4,1] >= -0.00601428571428571
 B_ub_4,_1: p[4,1] <= 1
 B_lb_4,_2: p[4,2] >= -0.00601428571428571
 B_ub_4,_2: p[4,2] <= 1
 B_lb_4,_3: p[4,3] >= -0.00601428571428571
 B_ub_4,_3: p[4,3] <= 1
 B_lb_4,_4: p[4,4] >= -0.00601428571428571
 B_ub_4,_4: p[4,4] <= 1
 B_lb_4,_5: p[4,5] >= -0.00601428571428571
 B_ub_4,_5: p[4,5] <= 1
 B_lb_4,_6: p[4,6] >= -0.00601428571428571
 B_ub_4,_6: p[4,6] <= 1
 B_lb_5,_0: p[5,0] >= -0.00601428571428571
 B_ub_5,_0: p[5,0] <= 1
 B_lb_5,_1: p[5,1] >= -0.00601428571428571
 B_ub_5,_1: p[5,1] <= 1
 B_lb_5,_2: p[5,2] >= -0.00601428571428571
 B_ub_5,_2: p[5,2] <= 1
 B_lb_5,_3: p[5,3] >= -0.00601428571428571
 B_ub_5,_3: p[5,3] <= 1
 B_lb_5,_4: p[5,4] >= -0.00601428571428571
 B_ub_5,_4: p[5,4] <= 1
 B_lb_5,_5: p[5,5] >= -0.00601428571428571
 B_ub_5,_5: p[5,5] <= 1
 B_lb_5,_6: p[5,6] >= -0.00601428571428571
 B_ub_5,_6: p[5,6] <= 1
 B_marginal_lb_0: p1[0] >= 0.556095
 B_marginal_ub_0: p1[0] <= 0.665
 B_marginal_lb_1: p1[1] >= 0.157295
 B_marginal_ub_1: p1[1] <= 0.2636
 B_marginal_lb_2: p1[2] >= -0.0193
 B_marginal_ub_2: p1[2] <= 0.0776
 B_marginal_lb_3: p1[3] >= -0.0661
 B_marginal_ub_3: p1[3] <= 0.0244
 B_marginal_lb_4: p1[4] >= -0.0805
 B_marginal_ub_4: p1[4] <= 0.0058
 B_marginal_lb_5: p1[5] >= -0.0829
 B_marginal_ub_5: p1[5] <= 1
 B_marginal_lb_0: p2[0] >= 0.5580285714285714
 B_marginal_ub_0: p2[0] <= 0.657
 B_marginal_lb_1: p2[1] >= 0.1734285714285714
 B_marginal_ub_1: p2[1] <= 0.2704
 B_marginal_lb_2: p2[2] >= -0.00537142857142857
 B_marginal_ub_2: p2[2] <= 0.0818
 B_marginal_lb_3: p2[3] >= -0.0579714285714286
 B_marginal_ub_3: p2[3] <= 0.021605
 B_marginal_lb_4: p2[4] >= -0.0689714285714286
 B_marginal_ub_4: p2[4] <= 0.0072
 B_marginal_lb_5: p2[5] >= -0.0723714285714286
 B_marginal_ub_5: p2[5] <= 1
 B_marginal_lb_6: p2[6] >= -0.0723714285714286
 B_marginal_ub_6: p2[6] <= 1
 frechet_lb_0,_0: - p[0,0] + p1[0] + p2[0] <= 1
 frechet_ub_x1_0: p[0,0] - p1[0] <= 0
 frechet_ub_x2_0: p[0,0] - p2[0] <= 0
 frechet_lb_0,_1: - p[0,1] + p1[0] + p2[1] <= 1
 frechet_ub_x1_0: p[0,1] - p1[0] <= 0
 frechet_ub_x2_1: p[0,1] - p2[1] <= 0
 frechet_lb_0,_2: - p[0,2] + p1[0] + p2[2] <= 1
 frechet_ub_x1_0: p[0,2] - p1[0] <= 0
 frechet_ub_x2_2: p[0,2] - p2[2] <= 0
 frechet_lb_0,_3: - p[0,3] + p1[0] + p2[3] <= 1
 frechet_ub_x1_0: p[0,3] - p1[0] <= 0
 frechet_ub_x2_3: p[0,3] - p2[3] <= 0
 frechet_lb_0,_4: - p[0,4] + p1[0] + p2[4] <= 1
 frechet_ub_x1_0: p[0,4] - p1[0] <= 0
 frechet_ub_x2_4: p[0,4] - p2[4] <= 0
 frechet_lb_0,_5: - p[0,5] + p1[0] + p2[5] <= 1
 frechet_ub_x1_0: p[0,5] - p1[0] <= 0
 frechet_ub_x2_5: p[0,5] - p2[5] <= 0
 frechet_lb_0,_6: - p[0,6] + p1[0] + p2[6] <= 1
 frechet_ub_x1_0: p[0,6] - p1[0] <= 0
 frechet_ub_x2_6: p[0,6] - p2[6] <= 0
 frechet_lb_1,_0: - p[1,0] + p1[1] + p2[0] <= 1
 frechet_ub_x1_1: p[1,0] - p1[1] <= 0
 frechet_ub_x2_0: p[1,0] - p2[0] <= 0
 frechet_lb_1,_1: - p[1,1] + p1[1] + p2[1] <= 1
 frechet_ub_x1_1: p[1,1] - p1[1] <= 0
 frechet_ub_x2_1: p[1,1] - p2[1] <= 0
 frechet_lb_1,_2: - p[1,2] + p1[1] + p2[2] <= 1
 frechet_ub_x1_1: p[1,2] - p1[1] <= 0
 frechet_ub_x2_2: p[1,2] - p2[2] <= 0
 frechet_lb_1,_3: - p[1,3] + p1[1] + p2[3] <= 1
 frechet_ub_x1_1: p[1,3] - p1[1] <= 0
 frechet_ub_x2_3: p[1,3] - p2[3] <= 0
 frechet_lb_1,_4: - p[1,4] + p1[1] + p2[4] <= 1
 frechet_ub_x1_1: p[1,4] - p1[1] <= 0
 frechet_ub_x2_4: p[1,4] - p2[4] <= 0
 frechet_lb_1,_5: - p[1,5] + p1[1] + p2[5] <= 1
 frechet_ub_x1_1: p[1,5] - p1[1] <= 0
 frechet_ub_x2_5: p[1,5] - p2[5] <= 0
 frechet_lb_1,_6: - p[1,6] + p1[1] + p2[6] <= 1
 frechet_ub_x1_1: p[1,6] - p1[1] <= 0
 frechet_ub_x2_6: p[1,6] - p2[6] <= 0
 frechet_lb_2,_0: - p[2,0] + p1[2] + p2[0] <= 1
 frechet_ub_x1_2: p[2,0] - p1[2] <= 0
 frechet_ub_x2_0: p[2,0] - p2[0] <= 0
 frechet_lb_2,_1: - p[2,1] + p1[2] + p2[1] <= 1
 frechet_ub_x1_2: p[2,1] - p1[2] <= 0
 frechet_ub_x2_1: p[2,1] - p2[1] <= 0
 frechet_lb_2,_2: - p[2,2] + p1[2] + p2[2] <= 1
 frechet_ub_x1_2: p[2,2] - p1[2] <= 0
 frechet_ub_x2_2: p[2,2] - p2[2] <= 0
 frechet_lb_2,_3: - p[2,3] + p1[2] + p2[3] <= 1
 frechet_ub_x1_2: p[2,3] - p1[2] <= 0
 frechet_ub_x2_3: p[2,3] - p2[3] <= 0
 frechet_lb_2,_4: - p[2,4] + p1[2] + p2[4] <= 1
 frechet_ub_x1_2: p[2,4] - p1[2] <= 0
 frechet_ub_x2_4: p[2,4] - p2[4] <= 0
 frechet_lb_2,_5: - p[2,5] + p1[2] + p2[5] <= 1
 frechet_ub_x1_2: p[2,5] - p1[2] <= 0
 frechet_ub_x2_5: p[2,5] - p2[5] <= 0
 frechet_lb_2,_6: - p[2,6] + p1[2] + p2[6] <= 1
 frechet_ub_x1_2: p[2,6] - p1[2] <= 0
 frechet_ub_x2_6: p[2,6] - p2[6] <= 0
 frechet_lb_3,_0: - p[3,0] + p1[3] + p2[0] <= 1
 frechet_ub_x1_3: p[3,0] - p1[3] <= 0
 frechet_ub_x2_0: p[3,0] - p2[0] <= 0
 frechet_lb_3,_1: - p[3,1] + p1[3] + p2[1] <= 1
 frechet_ub_x1_3: p[3,1] - p1[3] <= 0
 frechet_ub_x2_1: p[3,1] - p2[1] <= 0
 frechet_lb_3,_2: - p[3,2] + p1[3] + p2[2] <= 1
 frechet_ub_x1_3: p[3,2] - p1[3] <= 0
 frechet_ub_x2_2: p[3,2] - p2[2] <= 0
 frechet_lb_3,_3: - p[3,3] + p1[3] + p2[3] <= 1
 frechet_ub_x1_3: p[3,3] - p1[3] <= 0
 frechet_ub_x2_3: p[3,3] - p2[3] <= 0
 frechet_lb_3,_4: - p[3,4] + p1[3] + p2[4] <= 1
 frechet_ub_x1_3: p[3,4] - p1[3] <= 0
 frechet_ub_x2_4: p[3,4] - p2[4] <= 0
 frechet_lb_3,_5: - p[3,5] + p1[3] + p2[5] <= 1
 frechet_ub_x1_3: p[3,5] - p1[3] <= 0
 frechet_ub_x2_5: p[3,5] - p2[5] <= 0
 frechet_lb_3,_6: - p[3,6] + p1[3] + p2[6] <= 1
 frechet_ub_x1_3: p[3,6] - p1[3] <= 0
 frechet_ub_x2_6: p[3,6] - p2[6] <= 0
 frechet_lb_4,_0: - p[4,0] + p1[4] + p2[0] <= 1
 frechet_ub_x1_4: p[4,0] - p1[4] <= 0
 frechet_ub_x2_0: p[4,0] - p2[0] <= 0
 frechet_lb_4,_1: - p[4,1] + p1[4] + p2[1] <= 1
 frechet_ub_x1_4: p[4,1] - p1[4] <= 0
 frechet_ub_x2_1: p[4,1] - p2[1] <= 0
 frechet_lb_4,_2: - p[4,2] + p1[4] + p2[2] <= 1
 frechet_ub_x1_4: p[4,2] - p1[4] <= 0
 frechet_ub_x2_2: p[4,2] - p2[2] <= 0
 frechet_lb_4,_3: - p[4,3] + p1[4] + p2[3] <= 1
 frechet_ub_x1_4: p[4,3] - p1[4] <= 0
 frechet_ub_x2_3: p[4,3] - p2[3] <= 0
 frechet_lb_4,_4: - p[4,4] + p1[4] + p2[4] <= 1
 frechet_ub_x1_4: p[4,4] - p1[4] <= 0
 frechet_ub_x2_4: p[4,4] - p2[4] <= 0
 frechet_lb_4,_5: - p[4,5] + p1[4] + p2[5] <= 1
 frechet_ub_x1_4: p[4,5] - p1[4] <= 0
 frechet_ub_x2_5: p[4,5] - p2[5] <= 0
 frechet_lb_4,_6: - p[4,6] + p1[4] + p2[6] <= 1
 frechet_ub_x1_4: p[4,6] - p1[4] <= 0
 frechet_ub_x2_6: p[4,6] - p2[6] <= 0
 frechet_lb_5,_0: - p[5,0] + p1[5] + p2[0] <= 1
 frechet_ub_x1_5: p[5,0] - p1[5] <= 0
 frechet_ub_x2_0: p[5,0] - p2[0] <= 0
 frechet_lb_5,_1: - p[5,1] + p1[5] + p2[1] <= 1
 frechet_ub_x1_5: p[5,1] - p1[5] <= 0
 frechet_ub_x2_1: p[5,1] - p2[1] <= 0
 frechet_lb_5,_2: - p[5,2] + p1[5] + p2[2] <= 1
 frechet_ub_x1_5: p[5,2] - p1[5] <= 0
 frechet_ub_x2_2: p[5,2] - p2[2] <= 0
 frechet_lb_5,_3: - p[5,3] + p1[5] + p2[3] <= 1
 frechet_ub_x1_5: p[5,3] - p1[5] <= 0
 frechet_ub_x2_3: p[5,3] - p2[3] <= 0
 frechet_lb_5,_4: - p[5,4] + p1[5] + p2[4] <= 1
 frechet_ub_x1_5: p[5,4] - p1[5] <= 0
 frechet_ub_x2_4: p[5,4] - p2[4] <= 0
 frechet_lb_5,_5: - p[5,5] + p1[5] + p2[5] <= 1
 frechet_ub_x1_5: p[5,5] - p1[5] <= 0
 frechet_ub_x2_5: p[5,5] - p2[5] <= 0
 frechet_lb_5,_6: - p[5,6] + p1[5] + p2[6] <= 1
 frechet_ub_x1_5: p[5,6] - p1[5] <= 0
 frechet_ub_x2_6: p[5,6] - p2[6] <= 0
 Distribution: p[0,0] + p[0,1] + p[0,2] + p[0,3] + p[0,4] + p[0,5] + p[0,6]
   + p[1,0] + p[1,1] + p[1,2] + p[1,3] + p[1,4] + p[1,5] + p[1,6] + p[2,0]
   + p[2,1] + p[2,2] + p[2,3] + p[2,4] + p[2,5] + p[2,6] + p[3,0] + p[3,1]
   + p[3,2] + p[3,3] + p[3,4] + p[3,5] + p[3,6] + p[4,0] + p[4,1] + p[4,2]
   + p[4,3] + p[4,4] + p[4,5] + p[4,6] + p[5,0] + p[5,1] + p[5,2] + p[5,3]
   + p[5,4] + p[5,5] + p[5,6] <= 1
 Distribution_x1: p1[0] + p1[1] + p1[2] + p1[3] + p1[4] + p1[5] <= 1
 Distribution_x2: p2[0] + p2[1] + p2[2] + p2[3] + p2[4] + p2[5] + p2[6]
   <= 1
 Equation_0,_0: [ - p[0,0] * k_tx_1 - p[0,0] * k_tx_2 + p[0,1] * k_deg_2
   + p[1,0] * k_deg_1 + p[1,1] * k_reg ] = 0
 Equation_0,_1: [ p[0,0] * k_tx_2 - p[0,1] * k_tx_1 - p[0,1] * k_tx_2
   - p[0,1] * k_deg_2 + 2 p[0,2] * k_deg_2 + p[1,1] * k_deg_1
   + 2 p[1,2] * k_reg ] = 0
 Equation_0,_2: [ p[0,1] * k_tx_2 - p[0,2] * k_tx_1 - p[0,2] * k_tx_2
   - 2 p[0,2] * k_deg_2 + 3 p[0,3] * k_deg_2 + p[1,2] * k_deg_1
   + 3 p[1,3] * k_reg ] = 0
 Equation_0,_3: [ p[0,2] * k_tx_2 - p[0,3] * k_tx_1 - p[0,3] * k_tx_2
   - 3 p[0,3] * k_deg_2 + 4 p[0,4] * k_deg_2 + p[1,3] * k_deg_1
   + 4 p[1,4] * k_reg ] = 0
 Equation_0,_4: [ p[0,3] * k_tx_2 - p[0,4] * k_tx_1 - p[0,4] * k_tx_2
   - 4 p[0,4] * k_deg_2 + 5 p[0,5] * k_deg_2 + p[1,4] * k_deg_1
   + 5 p[1,5] * k_reg ] = 0
 Equation_0,_5: [ p[0,4] * k_tx_2 - p[0,5] * k_tx_1 - p[0,5] * k_tx_2
   - 5 p[0,5] * k_deg_2 + 6 p[0,6] * k_deg_2 + p[1,5] * k_deg_1
   + 6 p[1,6] * k_reg ] = 0
 Equation_1,_0: [ p[0,0] * k_tx_1 - p[1,0] * k_tx_1 - p[1,0] * k_tx_2
   - p[1,0] * k_deg_1 + p[1,1] * k_deg_2 + 2 p[2,0] * k_deg_1
   + 2 p[2,1] * k_reg ] = 0
 Equation_1,_1: [ p[0,1] * k_tx_1 + p[1,0] * k_tx_2 - p[1,1] * k_tx_1
   - p[1,1] * k_tx_2 - p[1,1] * k_deg_1 - p[1,1] * k_deg_2 - p[1,1] * k_reg
   + 2 p[1,2] * k_deg_2 + 2 p[2,1] * k_deg_1 + 4 p[2,2] * k_reg ] = 0
 Equation_1,_2: [ p[0,2] * k_tx_1 + p[1,1] * k_tx_2 - p[1,2] * k_tx_1
   - p[1,2] * k_tx_2 - p[1,2] * k_deg_1 - 2 p[1,2] * k_deg_2
   - 2 p[1,2] * k_reg + 3 p[1,3] * k_deg_2 + 2 p[2,2] * k_deg_1
   + 6 p[2,3] * k_reg ] = 0
 Equation_1,_3: [ p[0,3] * k_tx_1 + p[1,2] * k_tx_2 - p[1,3] * k_tx_1
   - p[1,3] * k_tx_2 - p[1,3] * k_deg_1 - 3 p[1,3] * k_deg_2
   - 3 p[1,3] * k_reg + 4 p[1,4] * k_deg_2 + 2 p[2,3] * k_deg_1
   + 8 p[2,4] * k_reg ] = 0
 Equation_1,_4: [ p[0,4] * k_tx_1 + p[1,3] * k_tx_2 - p[1,4] * k_tx_1
   - p[1,4] * k_tx_2 - p[1,4] * k_deg_1 - 4 p[1,4] * k_deg_2
   - 4 p[1,4] * k_reg + 5 p[1,5] * k_deg_2 + 2 p[2,4] * k_deg_1
   + 10 p[2,5] * k_reg ] = 0
 Equation_1,_5: [ p[0,5] * k_tx_1 + p[1,4] * k_tx_2 - p[1,5] * k_tx_1
   - p[1,5] * k_tx_2 - p[1,5] * k_deg_1 - 5 p[1,5] * k_deg_2
   - 5 p[1,5] * k_reg + 6 p[1,6] * k_deg_2 + 2 p[2,5] * k_deg_1
   + 12 p[2,6] * k_reg ] = 0
 Equation_2,_0: [ p[1,0] * k_tx_1 - p[2,0] * k_tx_1 - p[2,0] * k_tx_2
   - 2 p[2,0] * k_deg_1 + p[2,1] * k_deg_2 + 3 p[3,0] * k_deg_1
   + 3 p[3,1] * k_reg ] = 0
 Equation_2,_1: [ p[1,1] * k_tx_1 + p[2,0] * k_tx_2 - p[2,1] * k_tx_1
   - p[2,1] * k_tx_2 - 2 p[2,1] * k_deg_1 - p[2,1] * k_deg_2
   - 2 p[2,1] * k_reg + 2 p[2,2] * k_deg_2 + 3 p[3,1] * k_deg_1
   + 6 p[3,2] * k_reg ] = 0
 Equation_2,_2: [ p[1,2] * k_tx_1 + p[2,1] * k_tx_2 - p[2,2] * k_tx_1
   - p[2,2] * k_tx_2 - 2 p[2,2] * k_deg_1 - 2 p[2,2] * k_deg_2
   - 4 p[2,2] * k_reg + 3 p[2,3] * k_deg_2 + 3 p[3,2] * k_deg_1
   + 9 p[3,3] * k_reg ] = 0
 Equation_2,_3: [ p[1,3] * k_tx_1 + p[2,2] * k_tx_2 - p[2,3] * k_tx_1
   - p[2,3] * k_tx_2 - 2 p[2,3] * k_deg_1 - 3 p[2,3] * k_deg_2
   - 6 p[2,3] * k_reg + 4 p[2,4] * k_deg_2 + 3 p[3,3] * k_deg_1
   + 12 p[3,4] * k_reg ] = 0
 Equation_2,_4: [ p[1,4] * k_tx_1 + p[2,3] * k_tx_2 - p[2,4] * k_tx_1
   - p[2,4] * k_tx_2 - 2 p[2,4] * k_deg_1 - 4 p[2,4] * k_deg_2
   - 8 p[2,4] * k_reg + 5 p[2,5] * k_deg_2 + 3 p[3,4] * k_deg_1
   + 15 p[3,5] * k_reg ] = 0
 Equation_2,_5: [ p[1,5] * k_tx_1 + p[2,4] * k_tx_2 - p[2,5] * k_tx_1
   - p[2,5] * k_tx_2 - 2 p[2,5] * k_deg_1 - 5 p[2,5] * k_deg_2
   - 10 p[2,5] * k_reg + 6 p[2,6] * k_deg_2 + 3 p[3,5] * k_deg_1
   + 18 p[3,6] * k_reg ] = 0
 Equation_3,_0: [ p[2,0] * k_tx_1 - p[3,0] * k_tx_1 - p[3,0] * k_tx_2
   - 3 p[3,0] * k_deg_1 + p[3,1] * k_deg_2 + 4 p[4,0] * k_deg_1
   + 4 p[4,1] * k_reg ] = 0
 Equation_3,_1: [ p[2,1] * k_tx_1 + p[3,0] * k_tx_2 - p[3,1] * k_tx_1
   - p[3,1] * k_tx_2 - 3 p[3,1] * k_deg_1 - p[3,1] * k_deg_2
   - 3 p[3,1] * k_reg + 2 p[3,2] * k_deg_2 + 4 p[4,1] * k_deg_1
   + 8 p[4,2] * k_reg ] = 0
 Equation_3,_2: [ p[2,2] * k_tx_1 + p[3,1] * k_tx_2 - p[3,2] * k_tx_1
   - p[3,2] * k_tx_2 - 3 p[3,2] * k_deg_1 - 2 p[3,2] * k_deg_2
   - 6 p[3,2] * k_reg + 3 p[3,3] * k_deg_2 + 4 p[4,2] * k_deg_1
   + 12 p[4,3] * k_reg ] = 0
 Equation_3,_3: [ p[2,3] * k_tx_1 + p[3,2] * k_tx_2 - p[3,3] * k_tx_1
   - p[3,3] * k_tx_2 - 3 p[3,3] * k_deg_1 - 3 p[3,3] * k_deg_2
   - 9 p[3,3] * k_reg + 4 p[3,4] * k_deg_2 + 4 p[4,3] * k_deg_1
   + 16 p[4,4] * k_reg ] = 0
 Equation_3,_4: [ p[2,4] * k_tx_1 + p[3,3] * k_tx_2 - p[3,4] * k_tx_1
   - p[3,4] * k_tx_2 - 3 p[3,4] * k_deg_1 - 4 p[3,4] * k_deg_2
   - 12 p[3,4] * k_reg + 5 p[3,5] * k_deg_2 + 4 p[4,4] * k_deg_1
   + 20 p[4,5] * k_reg ] = 0
 Equation_3,_5: [ p[2,5] * k_tx_1 + p[3,4] * k_tx_2 - p[3,5] * k_tx_1
   - p[3,5] * k_tx_2 - 3 p[3,5] * k_deg_1 - 5 p[3,5] * k_deg_2
   - 15 p[3,5] * k_reg + 6 p[3,6] * k_deg_2 + 4 p[4,5] * k_deg_1
   + 24 p[4,6] * k_reg ] = 0
 Equation_4,_0: [ p[3,0] * k_tx_1 - p[4,0] * k_tx_1 - p[4,0] * k_tx_2
   - 4 p[4,0] * k_deg_1 + p[4,1] * k_deg_2 + 5 p[5,0] * k_deg_1
   + 5 p[5,1] * k_reg ] = 0
 Equation_4,_1: [ p[3,1] * k_tx_1 + p[4,0] * k_tx_2 - p[4,1] * k_tx_1
   - p[4,1] * k_tx_2 - 4 p[4,1] * k_deg_1 - p[4,1] * k_deg_2
   - 4 p[4,1] * k_reg + 2 p[4,2] * k_deg_2 + 5 p[5,1] * k_deg_1
   + 10 p[5,2] * k_reg ] = 0
 Equation_4,_2: [ p[3,2] * k_tx_1 + p[4,1] * k_tx_2 - p[4,2] * k_tx_1
   - p[4,2] * k_tx_2 - 4 p[4,2] * k_deg_1 - 2 p[4,2] * k_deg_2
   - 8 p[4,2] * k_reg + 3 p[4,3] * k_deg_2 + 5 p[5,2] * k_deg_1
   + 15 p[5,3] * k_reg ] = 0
 Equation_4,_3: [ p[3,3] * k_tx_1 + p[4,2] * k_tx_2 - p[4,3] * k_tx_1
   - p[4,3] * k_tx_2 - 4 p[4,3] * k_deg_1 - 3 p[4,3] * k_deg_2
   - 12 p[4,3] * k_reg + 4 p[4,4] * k_deg_2 + 5 p[5,3] * k_deg_1
   + 20 p[5,4] * k_reg ] = 0
 Equation_4,_4: [ p[3,4] * k_tx_1 + p[4,3] * k_tx_2 - p[4,4] * k_tx_1
   - p[4,4] * k_tx_2 - 4 p[4,4] * k_deg_1 - 4 p[4,4] * k_deg_2
   - 16 p[4,4] * k_reg + 5 p[4,5] * k_deg_2 + 5 p[5,4] * k_deg_1
   + 25 p[5,5] * k_reg ] = 0
 Equation_4,_5: [ p[3,5] * k_tx_1 + p[4,4] * k_tx_2 - p[4,5] * k_tx_1
   - p[4,5] * k_tx_2 - 4 p[4,5] * k_deg_1 - 5 p[4,5] * k_deg_2
   - 20 p[4,5] * k_reg + 6 p[4,6] * k_deg_2 + 5 p[5,5] * k_deg_1
   + 30 p[5,6] * k_reg ] = 0
Bounds
 p[0,0] <= 1
 p[0,1] <= 1
 p[0,2] <= 1
 p[0,3] <= 1
 p[0,4] <= 1
 p[0,5] <= 1
 p[0,6] <= 1
 p[1,0] <= 1
 p[1,1] <= 1
 p[1,2] <= 1
 p[1,3] <= 1
 p[1,4] <= 1
 p[1,5] <= 1
 p[1,6] <= 1
 p[2,0] <= 1
 p[2,1] <= 1
 p[2,2] <= 1
 p[2,3] <= 1
 p[2,4] <= 1
 p[2,5] <= 1
 p[2,6] <= 1
 p[3,0] <= 1
 p[3,1] <= 1
 p[3,2] <= 1
 p[3,3] <= 1
 p[3,4] <= 1
 p[3,5] <= 1
 p[3,6] <= 1
 p[4,0] <= 1
 p[4,1] <= 1
 p[4,2] <= 1
 p[4,3] <= 1
 p[4,4] <= 1
 p[4,5] <= 1
 p[4,6] <= 1
 p[5,0] <= 1
 p[5,1] <= 1
 p[5,2] <= 1
 p[5,3] <= 1
 p[5,4] <= 1
 p[5,5] <= 1
 p[5,6] <= 1
 p1[0] <= 1
 p1[1] <= 1
 p1[2] <= 1
 p1[3] <= 1
 p1[4] <= 1
 p1[5] <= 1
 p2[0] <= 1
 p2[1] <= 1
 p2[2] <= 1
 p2[3] <= 1
 p2[4] <= 1
 p2[5] <= 1
 p2[6] <= 1
 k_tx_1 <= 10
 k_tx_2 <= 10
 k_deg_1 <= 10
 k_deg_2 <= 10
 k_reg <= 10
End
